set VV := 0 1 2 3 4 5 6 7 8 9 10 11 12 13 14 15 16 17 18 19 20 21 22 23 24 25 26 27 28 29 30 31 32 33 34 35 36 37 38 39 40 ;
set VS := 0 1 2 3 4 5 6 7 8 9 10 11 12 13 14 15 16 17 18 19 20 21 22 23 24 25 26 27 28 29 30 31 32 33 34 35 36 37 38 39 40 41 42 43 44 45 46 47 48 49 50 51 52 53 54 55 56 57 58 59 60 61 62 63 64 65 66 67 68 69 70 71 72 73 74 75 76 77 78 79 80 81 82 83 84 85 ;
param cv := 
0 15
1 14
2 10
3 12
4 17
5 23
6 13
7 15
8 25
9 25
10 23
11 16
12 22
13 16
14 24
15 12
16 10
17 10
18 17
19 25
20 18
21 19
22 10
23 22
24 20
25 23
26 20
27 19
28 25
29 13
30 23
31 11
32 24
33 18
34 11
35 16
36 21
37 25
38 21
39 22
40 16
;
param cs := 
0 39
1 29
2 34
3 20
4 29
5 36
6 40
7 36
8 36
9 20
10 30
11 22
12 34
13 22
14 37
15 38
16 31
17 25
18 33
19 35
20 20
21 28
22 21
23 30
24 37
25 21
26 31
27 22
28 24
29 27
30 37
31 37
32 38
33 30
34 22
35 39
36 21
37 24
38 29
39 26
40 38
41 35
42 33
43 35
44 34
45 37
46 27
47 34
48 35
49 34
50 30
51 33
52 25
53 35
54 32
55 23
56 33
57 26
58 34
59 40
60 31
61 25
62 21
63 40
64 29
65 22
66 23
67 33
68 29
69 28
70 24
71 40
72 20
73 30
74 32
75 26
76 29
77 25
78 23
79 34
80 40
81 33
82 27
83 27
84 35
85 36
;
param bv:	 0 1 2 3 4 5 6 7 8 9 10 11 12 13 14 15 16 17 18 19 20 21 22 23 24 25 26 27 28 29 30 31 32 33 34 35 36 37 38 39 40 := 
		0 0 0 0 0 0 0 0 0 0 0 0 0 0 0 0 0 0 0 0 0 18 0 21 0 0 0 0 0 0 0 0 0 0 15 0 0 0 0 0 0 0 
		1 0 0 0 0 0 0 0 0 0 0 0 0 0 0 0 0 0 13 0 0 0 0 0 12 0 0 0 0 0 0 0 0 12 0 0 0 0 0 0 0 0 
		2 0 0 0 0 25 0 0 0 0 0 0 0 0 16 0 0 0 0 0 0 0 0 0 0 0 0 0 0 0 0 0 19 0 0 0 0 0 0 0 0 0 
		3 0 0 0 0 0 0 0 0 0 0 24 0 0 0 22 0 0 0 0 0 0 0 16 23 0 0 0 0 0 0 0 0 0 0 0 0 11 0 0 10 0 
		4 0 0 0 0 0 0 0 0 0 0 0 0 0 0 0 0 0 0 0 0 0 0 0 0 0 0 0 0 0 0 0 12 0 0 0 0 0 0 0 16 0 
		5 0 0 0 0 0 0 0 0 0 21 0 0 0 0 0 0 0 0 0 0 0 0 0 0 0 0 0 0 0 0 0 0 0 0 0 0 0 0 0 0 0 
		6 0 0 0 0 0 0 0 0 0 0 20 14 0 0 0 0 0 0 0 0 0 15 0 14 0 0 0 0 0 0 0 0 0 12 0 0 0 0 0 0 0 
		7 0 0 0 0 0 0 0 0 0 0 0 0 0 11 0 0 25 0 0 0 0 0 0 0 0 0 0 0 0 0 0 0 0 0 0 0 0 0 0 25 0 
		8 0 0 0 0 0 0 0 0 0 0 0 25 0 0 25 0 0 0 0 20 0 0 0 0 0 0 0 0 16 0 0 0 19 0 0 0 0 0 0 0 0 
		9 0 0 0 0 0 0 0 0 0 0 0 0 0 0 0 0 0 0 0 15 25 0 0 12 22 0 0 0 24 0 0 0 0 0 0 0 0 0 0 0 0 
		10 0 0 0 0 0 0 0 0 0 0 0 18 0 0 0 0 0 0 0 17 0 0 0 0 0 0 0 0 0 0 14 0 0 0 0 0 0 0 0 0 0 
		11 0 0 0 0 0 0 0 0 0 0 0 0 0 0 0 0 0 0 0 23 0 11 0 11 17 0 25 0 0 0 0 0 0 0 25 0 0 0 18 0 0 
		12 0 0 0 0 0 0 0 0 0 0 0 0 0 0 0 0 0 0 0 0 0 0 0 0 0 0 0 0 0 0 0 0 0 0 15 0 0 18 0 0 0 
		13 0 0 0 0 0 0 0 0 0 0 0 0 0 0 19 0 0 0 0 0 0 10 0 0 0 0 0 0 0 0 0 0 0 0 0 0 0 0 0 0 0 
		14 0 0 0 0 0 0 0 0 0 0 0 0 0 0 0 0 0 0 0 21 19 0 0 0 22 0 0 0 0 0 0 0 0 0 0 0 0 19 0 0 0 
		15 0 0 0 0 0 0 0 0 0 0 0 0 0 0 0 0 0 0 0 0 0 0 0 0 0 0 0 0 0 0 0 0 0 0 0 0 12 0 0 0 19 
		16 0 0 0 0 0 0 0 0 0 0 0 0 0 0 0 0 0 23 0 0 0 0 0 10 0 0 14 15 0 0 0 0 20 0 0 0 0 0 0 13 0 
		17 0 0 0 0 0 0 0 0 0 0 0 0 0 0 0 0 0 0 0 0 0 0 0 0 13 0 0 0 0 0 0 0 0 0 0 0 0 0 0 0 0 
		18 0 0 0 0 0 0 0 0 0 0 0 0 0 0 0 0 0 0 0 0 14 0 0 0 0 0 0 0 0 0 0 0 0 0 0 0 0 0 0 0 18 
		19 0 0 0 0 0 0 0 0 0 0 0 0 0 0 0 0 0 0 0 0 0 0 0 0 0 0 0 25 0 23 0 0 0 0 0 0 0 0 0 0 0 
		20 0 0 0 0 0 0 0 0 0 0 0 0 0 0 0 0 0 0 0 0 0 0 15 0 0 0 0 0 0 0 0 0 0 0 0 12 0 0 0 0 0 
		21 0 0 0 0 0 0 0 0 0 0 0 0 0 0 0 0 0 0 0 0 0 0 0 25 0 0 0 0 0 0 0 0 0 0 0 0 0 0 0 0 0 
		22 0 0 0 0 0 0 0 0 0 0 0 0 0 0 0 0 0 0 0 0 0 0 0 0 0 0 0 0 0 0 15 0 0 0 0 0 0 0 0 0 0 
		23 0 0 0 0 0 0 0 0 0 0 0 0 0 0 0 0 0 0 0 0 0 0 0 0 0 0 0 0 0 0 15 0 0 15 0 0 0 0 0 0 0 
		24 0 0 0 0 0 0 0 0 0 0 0 0 0 0 0 0 0 0 0 0 0 0 0 0 0 0 0 0 0 0 0 0 0 0 0 0 0 0 0 0 0 
		25 0 0 0 0 0 0 0 0 0 0 0 0 0 0 0 0 0 0 0 0 0 0 0 0 0 0 0 0 0 0 0 0 21 0 0 14 17 0 0 0 0 
		26 0 0 0 0 0 0 0 0 0 0 0 0 0 0 0 0 0 0 0 0 0 0 0 0 0 0 0 0 0 0 0 0 17 0 0 0 0 0 0 0 0 
		27 0 0 0 0 0 0 0 0 0 0 0 0 0 0 0 0 0 0 0 0 0 0 0 0 0 0 0 0 0 0 22 0 0 16 0 0 0 0 0 0 0 
		28 0 0 0 0 0 0 0 0 0 0 0 0 0 0 0 0 0 0 0 0 0 0 0 0 0 0 0 0 0 0 20 0 0 0 0 0 0 0 25 0 0 
		29 0 0 0 0 0 0 0 0 0 0 0 0 0 0 0 0 0 0 0 0 0 0 0 0 0 0 0 0 0 0 0 0 0 21 0 16 11 0 23 0 0 
		30 0 0 0 0 0 0 0 0 0 0 0 0 0 0 0 0 0 0 0 0 0 0 0 0 0 0 0 0 0 0 0 0 0 14 0 0 0 15 0 0 0 
		31 0 0 0 0 0 0 0 0 0 0 0 0 0 0 0 0 0 0 0 0 0 0 0 0 0 0 0 0 0 0 0 0 0 16 0 0 0 0 0 0 14 
		32 0 0 0 0 0 0 0 0 0 0 0 0 0 0 0 0 0 0 0 0 0 0 0 0 0 0 0 0 0 0 0 0 0 0 25 0 0 0 0 0 0 
		33 0 0 0 0 0 0 0 0 0 0 0 0 0 0 0 0 0 0 0 0 0 0 0 0 0 0 0 0 0 0 0 0 0 0 0 0 0 0 0 0 0 
		34 0 0 0 0 0 0 0 0 0 0 0 0 0 0 0 0 0 0 0 0 0 0 0 0 0 0 0 0 0 0 0 0 0 0 0 0 0 0 0 0 0 
		35 0 0 0 0 0 0 0 0 0 0 0 0 0 0 0 0 0 0 0 0 0 0 0 0 0 0 0 0 0 0 0 0 0 0 0 0 0 0 0 0 0 
		36 0 0 0 0 0 0 0 0 0 0 0 0 0 0 0 0 0 0 0 0 0 0 0 0 0 0 0 0 0 0 0 0 0 0 0 0 0 0 0 0 16 
		37 0 0 0 0 0 0 0 0 0 0 0 0 0 0 0 0 0 0 0 0 0 0 0 0 0 0 0 0 0 0 0 0 0 0 0 0 0 0 0 0 0 
		38 0 0 0 0 0 0 0 0 0 0 0 0 0 0 0 0 0 0 0 0 0 0 0 0 0 0 0 0 0 0 0 0 0 0 0 0 0 0 0 0 0 
		39 0 0 0 0 0 0 0 0 0 0 0 0 0 0 0 0 0 0 0 0 0 0 0 0 0 0 0 0 0 0 0 0 0 0 0 0 0 0 0 0 0 
		40 0 0 0 0 0 0 0 0 0 0 0 0 0 0 0 0 0 0 0 0 0 0 0 0 0 0 0 0 0 0 0 0 0 0 0 0 0 0 0 0 0 
;
param bs:	 0 1 2 3 4 5 6 7 8 9 10 11 12 13 14 15 16 17 18 19 20 21 22 23 24 25 26 27 28 29 30 31 32 33 34 35 36 37 38 39 40 41 42 43 44 45 46 47 48 49 50 51 52 53 54 55 56 57 58 59 60 61 62 63 64 65 66 67 68 69 70 71 72 73 74 75 76 77 78 79 80 81 82 83 84 85 := 
		0 0 0 0 0 0 0 0 0 0 0 0 0 0 0 0 0 36 0 0 31 30 0 31 0 0 0 0 0 0 0 28 0 0 0 0 0 0 39 20 0 0 0 0 0 0 0 0 24 0 28 20 0 0 0 0 0 0 0 0 0 37 0 0 0 0 35 0 0 0 0 0 0 0 24 0 0 0 23 0 0 0 0 0 26 0 0 
		1 0 0 22 28 0 0 0 22 0 29 0 0 25 34 0 0 0 40 34 0 0 0 0 0 0 0 20 0 0 31 0 37 0 22 0 0 0 0 29 0 0 0 0 0 0 0 21 0 0 0 0 25 0 0 0 31 0 0 0 0 0 0 37 0 0 0 0 0 23 28 0 0 0 0 31 0 0 25 0 0 0 0 0 0 0 0 
		2 0 22 0 0 0 0 0 0 0 35 26 0 0 0 0 0 0 0 0 0 0 0 34 0 0 0 0 0 0 0 0 0 0 0 0 0 0 0 0 0 0 0 0 0 0 0 0 0 30 0 0 0 0 0 0 0 0 0 0 0 0 0 0 0 0 0 27 0 0 38 39 0 0 0 38 0 0 32 21 0 0 0 0 0 0 0 
		3 0 28 0 0 0 0 0 0 0 0 0 0 25 0 0 0 0 0 0 0 0 0 0 0 37 0 30 0 38 0 28 0 0 0 0 0 0 0 0 0 0 0 0 0 27 0 0 0 0 0 0 0 0 0 0 0 0 0 0 0 0 0 0 0 0 0 0 0 0 27 0 0 0 0 0 0 0 0 0 0 0 0 23 0 0 0 
		4 0 0 0 0 0 0 0 30 0 24 0 0 0 28 0 34 0 0 26 0 0 0 0 0 0 0 0 0 0 0 0 40 0 0 0 0 0 0 0 0 0 0 27 0 28 0 0 0 0 0 0 0 0 0 0 0 0 0 0 0 0 0 0 0 0 0 34 0 0 0 0 0 0 0 0 31 0 0 0 0 0 0 0 0 0 0 
		5 0 0 0 0 0 0 0 0 0 0 0 0 23 0 0 0 0 0 0 22 0 0 0 0 0 0 0 0 0 0 0 0 0 0 0 0 0 38 0 0 0 0 0 0 0 0 0 0 30 0 0 0 0 0 0 0 0 0 0 0 0 0 0 0 0 0 0 0 0 0 0 0 0 29 32 0 0 0 0 0 0 38 0 0 34 0 
		6 0 0 0 0 0 0 0 0 0 0 0 0 0 0 0 0 0 0 0 0 0 0 0 0 21 0 0 0 0 0 0 0 0 20 0 35 23 27 0 0 0 23 35 0 0 24 0 0 39 22 0 0 0 32 0 0 0 0 0 0 0 0 0 0 0 0 0 0 0 0 0 0 21 30 0 0 0 0 0 0 0 0 0 0 0 21 
		7 0 22 0 0 30 0 0 0 0 0 0 0 0 0 0 0 0 0 0 0 0 0 0 0 0 0 0 0 0 0 0 0 0 0 0 0 0 37 0 0 0 0 0 0 0 0 0 23 0 0 0 0 0 0 0 22 0 0 31 0 0 0 0 0 0 0 0 0 0 0 0 0 0 0 0 34 0 0 0 0 0 0 0 31 0 0 
		8 0 0 0 0 0 0 0 0 0 0 23 0 0 0 0 0 0 0 0 0 0 0 0 0 0 0 0 0 0 35 0 0 0 0 0 0 0 0 0 0 0 0 0 0 0 0 0 0 0 0 0 0 0 0 0 0 0 0 0 0 0 0 0 0 29 0 0 0 0 0 0 0 0 0 0 0 36 0 0 0 0 0 0 0 0 0 
		9 0 29 35 0 24 0 0 0 0 0 0 0 0 0 0 0 25 0 0 0 0 26 0 0 0 0 0 0 0 0 0 0 0 0 0 0 0 0 0 0 0 0 0 0 0 0 0 0 0 29 0 0 0 38 36 0 0 0 0 0 0 0 34 0 0 0 26 0 0 0 0 0 0 0 0 0 0 0 0 0 0 0 0 0 0 0 
		10 0 0 26 0 0 0 0 0 23 0 0 0 0 23 0 0 0 0 0 0 0 0 35 0 0 0 21 0 0 30 0 25 28 0 0 0 0 38 40 0 0 0 0 0 0 0 32 0 0 0 24 0 0 0 0 0 0 0 37 34 0 40 33 0 0 0 0 40 0 0 0 0 0 0 0 0 0 0 0 0 0 30 23 0 0 0 
		11 0 0 0 0 0 0 0 0 0 0 0 0 0 0 0 0 0 0 0 0 34 0 0 0 0 0 0 0 23 0 0 0 0 0 0 0 0 0 0 0 0 0 0 0 39 0 0 0 0 0 0 0 0 0 0 0 0 0 0 0 30 37 0 0 0 0 0 0 0 30 0 0 0 0 0 0 0 30 0 0 0 0 0 0 0 0 
		12 0 25 0 25 0 23 0 0 0 0 0 0 0 0 0 0 0 0 0 0 0 0 0 0 0 0 0 0 40 0 0 0 0 0 0 0 0 0 37 0 0 0 0 0 0 34 0 0 0 0 0 0 0 36 0 26 0 0 0 0 0 0 0 0 0 0 0 0 0 37 0 0 0 0 0 0 0 0 0 0 24 0 0 0 27 0 
		13 0 34 0 0 28 0 0 0 0 0 23 0 0 0 0 0 0 0 0 0 0 0 0 0 0 27 0 0 0 0 0 0 0 0 0 0 0 0 0 0 0 0 0 0 0 0 0 0 0 0 0 0 0 0 0 0 0 0 0 0 0 0 0 0 0 24 33 0 0 0 0 0 0 0 31 0 21 0 0 0 0 0 0 0 0 0 
		14 0 0 0 0 0 0 0 0 0 0 0 0 0 0 0 0 0 0 0 0 0 34 0 0 0 0 0 34 0 0 0 0 0 0 0 0 0 0 0 0 0 0 39 0 0 0 0 0 0 36 0 0 0 28 0 0 0 0 0 0 0 0 24 0 0 29 0 0 0 0 0 0 0 25 0 0 0 0 0 0 0 0 0 0 0 0 
		15 0 0 0 0 34 0 0 0 0 0 0 0 0 0 0 0 0 36 21 0 0 0 0 0 0 0 0 0 0 0 0 0 0 0 0 0 36 0 32 38 28 0 33 0 37 0 0 0 33 0 31 0 0 0 0 0 0 0 0 0 0 0 0 0 0 0 0 0 0 20 0 0 0 0 0 0 0 26 0 0 36 0 0 0 0 0 
		16 36 0 0 0 0 0 0 0 0 25 0 0 0 0 0 0 0 0 0 0 0 35 0 0 0 0 0 0 0 0 0 0 0 0 0 0 21 0 0 0 0 0 0 0 0 0 0 22 0 32 0 0 0 29 0 0 0 0 0 0 0 0 0 0 0 24 0 0 0 0 0 0 0 0 38 0 0 0 0 0 0 0 29 0 31 0 
		17 0 40 0 0 0 0 0 0 0 0 0 0 0 0 0 36 0 0 29 0 0 0 0 0 0 0 0 0 0 0 0 0 0 0 0 0 0 0 0 0 0 0 0 0 0 0 0 0 0 0 0 25 0 0 0 0 0 0 0 0 0 0 0 0 0 0 28 0 0 0 0 0 0 0 0 0 34 0 0 0 0 0 0 0 0 0 
		18 0 34 0 0 26 0 0 0 0 0 0 0 0 0 0 21 0 29 0 0 0 0 0 0 0 0 0 0 0 0 0 0 0 0 0 0 0 0 0 0 0 0 0 0 0 0 0 0 0 0 0 23 0 0 0 0 22 0 0 0 0 0 0 0 32 0 0 26 0 0 0 0 0 0 39 0 0 20 0 0 21 0 0 0 0 0 
		19 31 0 0 0 0 22 0 0 0 0 0 0 0 0 0 0 0 0 0 0 0 0 30 0 0 0 0 23 0 0 0 0 0 0 29 0 0 26 0 0 0 0 0 28 0 0 0 0 38 21 0 0 31 0 0 0 0 0 0 0 0 0 0 0 0 0 0 0 0 0 0 0 0 21 0 0 0 0 0 0 38 0 0 0 0 0 
		20 30 0 0 0 0 0 0 0 0 0 0 34 0 0 0 0 0 0 0 0 0 27 0 0 0 0 0 0 0 33 0 0 0 0 0 0 0 0 0 0 0 0 0 0 0 0 0 0 0 0 0 0 37 31 0 0 0 0 0 0 0 0 0 0 0 0 0 0 0 0 0 0 0 0 0 0 0 0 0 0 0 0 34 0 0 0 
		21 0 0 0 0 0 0 0 0 0 26 0 0 0 0 34 0 35 0 0 0 27 0 23 0 0 38 0 31 0 0 0 27 0 0 35 0 0 0 0 0 0 0 0 0 0 0 0 23 22 0 0 0 0 0 0 0 0 0 0 0 0 0 23 0 0 0 0 0 0 0 0 0 0 0 0 0 0 0 0 0 0 0 0 0 0 0 
		22 31 0 34 0 0 0 0 0 0 0 35 0 0 0 0 0 0 0 0 30 0 23 0 0 0 20 0 0 0 0 0 0 0 0 0 0 0 0 0 0 0 0 0 0 0 25 0 0 0 37 0 0 0 0 0 0 0 0 0 0 0 0 0 0 0 0 0 0 0 0 0 0 0 0 32 0 0 0 0 0 0 0 0 0 0 0 
		23 0 0 0 0 0 0 0 0 0 0 0 0 0 0 0 0 0 0 0 0 0 0 0 0 0 0 0 0 0 0 0 0 0 0 0 0 0 0 0 0 0 0 0 33 0 0 0 0 0 0 0 0 0 0 0 0 0 0 0 0 0 0 0 0 0 0 0 0 0 0 0 0 0 0 0 0 0 0 0 0 0 0 40 0 0 0 
		24 0 0 0 37 0 0 21 0 0 0 0 0 0 0 0 0 0 0 0 0 0 0 0 0 0 0 0 0 0 0 0 0 0 22 0 0 0 0 0 0 0 0 0 0 0 0 0 0 0 0 0 0 0 0 0 0 0 0 0 0 0 0 0 0 0 0 0 0 0 0 0 0 0 0 0 0 0 0 0 26 0 0 0 0 0 0 
		25 0 0 0 0 0 0 0 0 0 0 0 0 0 27 0 0 0 0 0 0 0 38 20 0 0 0 0 29 0 0 0 0 0 0 0 33 40 0 0 0 0 0 0 0 0 0 0 0 0 0 0 0 0 0 0 0 0 0 0 0 0 0 0 0 0 0 0 0 0 0 0 0 0 0 0 0 0 0 0 0 0 28 0 0 0 28 
		26 0 20 0 30 0 0 0 0 0 0 21 0 0 0 0 0 0 0 0 0 0 0 0 0 0 0 0 0 0 35 0 0 0 0 0 0 0 0 0 0 40 0 0 0 0 0 0 0 0 0 0 0 0 0 0 0 0 0 0 0 0 0 0 0 0 0 0 27 0 0 0 0 0 0 0 0 0 30 0 0 0 0 21 0 0 0 
		27 0 0 0 0 0 0 0 0 0 0 0 0 0 0 34 0 0 0 0 23 0 31 0 0 0 29 0 0 0 0 0 0 0 0 0 0 0 0 0 0 0 0 0 36 23 0 0 34 0 0 0 0 0 30 0 0 32 23 0 0 0 0 0 0 0 0 0 0 0 0 0 0 0 0 0 0 0 0 32 0 0 0 0 0 37 0 
		28 0 0 0 38 0 0 0 0 0 0 0 23 40 0 0 0 0 0 0 0 0 0 0 0 0 0 0 0 0 0 0 0 0 39 32 0 0 33 32 0 0 0 0 0 31 0 0 21 0 0 0 37 0 29 0 0 0 0 0 0 0 0 35 0 0 0 0 40 0 0 0 0 38 0 0 0 0 0 0 0 0 0 0 0 0 0 
		29 0 31 0 0 0 0 0 0 35 0 30 0 0 0 0 0 0 0 0 0 33 0 0 0 0 0 35 0 0 0 0 23 0 0 0 0 0 0 0 0 0 0 0 0 0 0 0 0 0 0 0 0 0 0 26 0 0 0 0 25 34 0 0 33 0 0 35 0 32 0 0 0 0 30 0 0 0 0 0 0 0 0 0 0 0 0 
		30 28 0 0 28 0 0 0 0 0 0 0 0 0 0 0 0 0 0 0 0 0 0 0 0 0 0 0 0 0 0 0 0 27 0 38 0 0 0 0 0 0 0 0 0 0 0 0 0 0 0 0 0 0 0 0 0 0 0 0 0 0 0 0 0 0 0 0 0 32 0 0 0 0 0 0 0 0 0 0 0 0 0 0 0 0 0 
		31 0 37 0 0 40 0 0 0 0 0 25 0 0 0 0 0 0 0 0 0 0 27 0 0 0 0 0 0 0 23 0 0 0 0 0 0 0 0 0 0 34 0 0 0 0 0 0 0 0 0 0 0 0 0 0 0 0 0 0 0 0 0 0 0 0 0 0 0 0 20 0 0 0 0 0 0 30 0 0 0 0 0 0 0 0 0 
		32 0 0 0 0 0 0 0 0 0 0 28 0 0 0 0 0 0 0 0 0 0 0 0 0 0 0 0 0 0 0 27 0 0 0 0 0 26 0 0 0 24 0 0 0 20 0 0 0 0 0 0 0 0 0 0 0 0 0 0 0 0 0 0 0 34 0 21 0 0 0 0 25 0 0 0 0 0 0 0 0 0 0 0 0 0 0 
		33 0 22 0 0 0 0 20 0 0 0 0 0 0 0 0 0 0 0 0 0 0 0 0 0 22 0 0 0 39 0 0 0 0 0 0 0 0 0 0 0 0 0 32 0 0 0 0 0 0 0 0 0 0 0 0 0 0 0 0 0 0 0 0 0 0 0 0 0 0 0 0 0 0 0 0 0 0 0 24 0 0 0 30 0 0 0 
		34 0 0 0 0 0 0 0 0 0 0 0 0 0 0 0 0 0 0 0 29 0 35 0 0 0 0 0 0 32 0 38 0 0 0 0 0 0 0 0 0 0 0 0 0 0 0 0 0 0 0 0 0 38 0 0 0 0 33 0 0 0 0 0 0 0 36 0 0 23 20 0 0 22 0 0 0 0 0 0 0 0 0 0 0 0 0 
		35 0 0 0 0 0 0 35 0 0 0 0 0 0 0 0 0 0 0 0 0 0 0 0 0 0 33 0 0 0 0 0 0 0 0 0 0 0 0 0 0 0 0 0 0 0 35 0 26 0 0 0 0 0 0 0 0 0 0 0 0 0 39 0 0 0 0 0 0 37 0 0 0 0 30 0 0 0 0 0 0 37 38 0 0 0 0 
		36 0 0 0 0 0 0 23 0 0 0 0 0 0 0 0 36 21 0 0 0 0 0 0 0 0 40 0 0 0 0 0 0 26 0 0 0 0 0 0 0 0 0 0 0 0 0 0 0 0 0 0 0 0 27 0 0 0 0 0 0 0 0 0 0 34 0 0 0 0 0 0 0 0 0 0 0 0 0 0 0 0 0 0 0 0 0 
		37 39 0 0 0 0 38 27 37 0 0 38 0 0 0 0 0 0 0 0 26 0 0 0 0 0 0 0 0 33 0 0 0 0 0 0 0 0 0 0 35 0 0 0 0 0 22 0 0 0 39 0 0 0 0 0 26 0 0 0 0 0 0 0 30 35 0 35 0 0 0 27 0 38 0 0 0 0 0 0 0 36 0 0 0 0 0 
		38 20 29 0 0 0 0 0 0 0 0 40 0 37 0 0 32 0 0 0 0 0 0 0 0 0 0 0 0 32 0 0 0 0 0 0 0 0 0 0 0 0 0 0 0 0 0 0 0 30 0 36 0 0 0 36 0 38 0 22 0 0 0 0 0 0 39 0 0 0 0 24 0 0 0 0 0 0 0 0 0 0 0 0 0 0 0 
		39 0 0 0 0 0 0 0 0 0 0 0 0 0 0 0 38 0 0 0 0 0 0 0 0 0 0 0 0 0 0 0 0 0 0 0 0 0 35 0 0 0 0 0 0 0 0 20 0 0 0 0 0 0 0 0 0 0 0 28 0 0 0 0 0 0 0 0 0 37 0 0 0 0 0 0 0 36 39 0 0 0 0 0 0 0 0 
		40 0 0 0 0 0 0 0 0 0 0 0 0 0 0 0 28 0 0 0 0 0 0 0 0 0 0 40 0 0 0 0 34 24 0 0 0 0 0 0 0 0 0 0 0 0 0 0 0 0 25 0 0 0 0 0 34 0 0 0 0 0 0 0 0 0 0 0 0 0 0 0 0 0 0 0 0 0 0 0 0 0 0 0 0 0 0 
		41 0 0 0 0 0 0 23 0 0 0 0 0 0 0 0 0 0 0 0 0 0 0 0 0 0 0 0 0 0 0 0 0 0 0 0 0 0 0 0 0 0 0 0 33 0 0 0 0 0 0 28 0 0 0 0 0 0 0 0 0 0 0 0 0 0 0 0 0 34 20 0 0 0 0 26 0 0 34 0 0 0 0 24 0 0 0 
		42 0 0 0 0 27 0 35 0 0 0 0 0 0 0 39 33 0 0 0 0 0 0 0 0 0 0 0 0 0 0 0 0 0 32 0 0 0 0 0 0 0 0 0 0 40 0 0 0 0 0 0 0 0 0 0 0 0 0 0 0 0 0 0 0 0 0 0 0 0 0 0 0 0 0 0 0 0 0 0 0 0 0 0 0 0 0 
		43 0 0 0 0 0 0 0 0 0 0 0 0 0 0 0 0 0 0 0 28 0 0 0 33 0 0 0 36 0 0 0 0 0 0 0 0 0 0 0 0 0 33 0 0 0 0 0 20 0 0 0 0 0 33 0 35 0 0 0 0 0 0 0 0 0 0 0 0 0 0 0 0 0 0 0 0 0 0 0 0 0 0 0 0 0 23 
		44 0 0 0 27 28 0 0 0 0 0 0 39 0 0 0 37 0 0 0 0 0 0 0 0 0 0 0 23 31 0 0 0 20 0 0 0 0 0 0 0 0 0 40 0 0 0 25 31 0 0 30 25 0 0 0 0 0 0 0 0 0 0 0 0 0 0 0 0 0 0 31 31 0 0 0 0 0 0 0 0 0 0 0 0 0 0 
		45 0 0 0 0 0 0 24 0 0 0 0 0 34 0 0 0 0 0 0 0 0 0 25 0 0 0 0 0 0 0 0 0 0 0 0 35 0 22 0 0 0 0 0 0 0 0 0 0 0 0 0 0 0 0 0 0 0 0 0 0 0 0 0 0 0 0 0 0 0 0 26 0 0 0 0 0 0 0 0 0 0 0 0 0 0 0 
		46 0 21 0 0 0 0 0 0 0 0 32 0 0 0 0 0 0 0 0 0 0 0 0 0 0 0 0 0 0 0 0 0 0 0 0 0 0 0 0 20 0 0 0 0 25 0 0 0 0 0 0 0 0 0 0 0 27 0 0 0 0 0 0 0 0 0 0 0 26 23 0 0 0 0 32 27 0 37 0 0 0 0 0 0 31 0 
		47 24 0 0 0 0 0 0 23 0 0 0 0 0 0 0 0 22 0 0 0 0 23 0 0 0 0 0 34 21 0 0 0 0 0 0 26 0 0 0 0 0 0 0 20 31 0 0 0 0 0 0 0 37 0 0 0 0 0 0 0 0 0 20 0 0 0 0 0 0 31 0 0 34 0 36 0 0 0 0 0 39 26 0 30 0 0 
		48 0 0 30 0 0 30 39 0 0 0 0 0 0 0 0 33 0 0 0 38 0 22 0 0 0 0 0 0 0 0 0 0 0 0 0 0 0 0 30 0 0 0 0 0 0 0 0 0 0 0 0 0 0 0 30 0 0 33 0 38 0 0 0 0 0 0 0 0 0 30 0 0 0 36 0 0 0 0 21 0 0 0 0 0 0 35 
		49 28 0 0 0 0 0 22 0 0 29 0 0 0 0 36 0 32 0 0 21 0 0 37 0 0 0 0 0 0 0 0 0 0 0 0 0 0 39 0 0 25 0 0 0 0 0 0 0 0 0 0 0 0 0 0 0 0 0 0 0 0 0 0 0 0 0 0 0 0 0 0 0 0 38 0 0 0 0 0 0 0 0 0 0 0 0 
		50 20 0 0 0 0 0 0 0 0 0 24 0 0 0 0 31 0 0 0 0 0 0 0 0 0 0 0 0 0 0 0 0 0 0 0 0 0 0 36 0 0 28 0 0 30 0 0 0 0 0 0 0 23 0 0 0 0 24 0 0 0 0 0 0 0 0 0 0 0 38 0 0 28 0 0 0 0 0 0 0 0 0 0 0 0 33 
		51 0 25 0 0 0 0 0 0 0 0 0 0 0 0 0 0 0 25 23 0 0 0 0 0 0 0 0 0 37 0 0 0 0 0 0 0 0 0 0 0 0 0 0 0 25 0 0 0 0 0 0 0 0 0 39 0 23 0 0 25 0 0 0 23 0 0 0 0 24 20 0 0 0 0 25 0 0 0 0 0 0 0 0 0 0 0 
		52 0 0 0 0 0 0 0 0 0 0 0 0 0 0 0 0 0 0 0 31 37 0 0 0 0 0 0 0 0 0 0 0 0 0 38 0 0 0 0 0 0 0 0 0 0 0 0 37 0 0 23 0 0 40 0 0 0 0 0 0 0 0 0 0 0 0 0 0 0 0 0 0 0 24 0 0 0 0 0 25 35 0 0 0 0 0 
		53 0 0 0 0 0 0 32 0 0 38 0 0 36 0 28 0 29 0 0 0 31 0 0 0 0 0 0 30 29 0 0 0 0 0 0 0 27 0 0 0 0 0 0 33 0 0 0 0 0 0 0 0 40 0 0 0 0 0 0 24 0 0 24 0 0 0 0 0 0 0 0 0 37 0 0 0 0 0 0 0 0 0 0 0 0 0 
		54 0 0 0 0 0 0 0 0 0 36 0 0 0 0 0 0 0 0 0 0 0 0 0 0 0 0 0 0 0 26 0 0 0 0 0 0 0 0 36 0 0 0 0 0 0 0 0 0 30 0 0 39 0 0 0 0 0 0 0 0 0 0 0 0 0 0 0 0 0 23 39 0 0 0 0 0 0 0 0 0 0 0 0 0 0 0 
		55 0 31 0 0 0 0 0 22 0 0 0 0 26 0 0 0 0 0 0 0 0 0 0 0 0 0 0 0 0 0 0 0 0 0 0 0 0 26 0 0 34 0 0 35 0 0 0 0 0 0 0 0 0 0 0 0 0 0 0 0 0 0 0 0 0 0 0 0 0 0 0 0 0 0 0 0 0 0 0 27 21 0 0 0 27 0 
		56 0 0 0 0 0 0 0 0 0 0 0 0 0 0 0 0 0 0 22 0 0 0 0 0 0 0 0 32 0 0 0 0 0 0 0 0 0 0 38 0 0 0 0 0 0 0 27 0 0 0 0 23 0 0 0 0 0 0 0 0 0 0 0 0 0 0 0 0 0 0 0 25 0 0 0 22 0 0 23 0 30 22 28 0 0 0 
		57 0 0 0 0 0 0 0 0 0 0 0 0 0 0 0 0 0 0 0 0 0 0 0 0 0 0 0 23 0 0 0 0 0 0 33 0 0 0 0 0 0 0 0 0 0 0 0 0 33 0 24 0 0 0 0 0 0 0 29 0 0 0 0 0 40 0 0 0 0 35 0 0 0 0 23 33 0 0 0 0 0 0 0 0 33 20 
		58 0 0 0 0 0 0 0 31 0 0 37 0 0 0 0 0 0 0 0 0 0 0 0 0 0 0 0 0 0 0 0 0 0 0 0 0 0 0 22 28 0 0 0 0 0 0 0 0 0 0 0 0 0 0 0 0 0 29 0 0 0 0 0 0 33 0 0 0 0 26 0 0 0 0 0 0 20 0 0 0 0 0 0 0 0 0 
		59 0 0 0 0 0 0 0 0 0 0 34 0 0 0 0 0 0 0 0 0 0 0 0 0 0 0 0 0 0 25 0 0 0 0 0 0 0 0 0 0 0 0 0 0 0 0 0 0 38 0 0 25 0 24 0 0 0 0 0 0 0 0 0 0 0 0 0 0 0 0 20 0 0 0 0 0 0 0 0 0 0 0 23 0 0 0 
		60 37 0 0 0 0 0 0 0 0 0 0 30 0 0 0 0 0 0 0 0 0 0 0 0 0 0 0 0 0 34 0 0 0 0 0 0 0 0 0 0 0 0 0 0 0 0 0 0 0 0 0 0 0 0 0 0 0 0 0 0 0 0 0 0 0 0 0 0 0 0 0 0 0 0 0 0 0 0 0 0 0 0 20 0 0 28 
		61 0 0 0 0 0 0 0 0 0 0 40 37 0 0 0 0 0 0 0 0 0 0 0 0 0 0 0 0 0 0 0 0 0 0 0 39 0 0 0 0 0 0 0 0 0 0 0 0 0 0 0 0 0 0 0 0 0 0 0 0 0 0 0 0 0 0 0 0 0 0 0 0 0 0 0 0 0 0 0 0 0 0 0 0 0 0 
		62 0 37 0 0 0 0 0 0 0 34 33 0 0 0 24 0 0 0 0 0 0 23 0 0 0 0 0 0 35 0 0 0 0 0 0 0 0 0 0 0 0 0 0 0 0 0 0 20 0 0 0 0 0 24 0 0 0 0 0 0 0 0 0 0 0 27 37 0 0 0 0 0 30 0 0 0 0 0 0 24 0 0 0 0 0 0 
		63 0 0 0 0 0 0 0 0 0 0 0 0 0 0 0 0 0 0 0 0 0 0 0 0 0 0 0 0 0 33 0 0 0 0 0 0 0 30 0 0 0 0 0 0 0 0 0 0 0 0 0 23 0 0 0 0 0 0 0 0 0 0 0 0 0 0 0 0 0 0 0 0 0 0 0 0 0 0 0 0 0 0 0 33 0 0 
		64 0 0 0 0 0 0 0 0 29 0 0 0 0 0 0 0 0 0 32 0 0 0 0 0 0 0 0 0 0 0 0 0 34 0 0 0 34 35 0 0 0 0 0 0 0 0 0 0 0 0 0 0 0 0 0 0 0 40 33 0 0 0 0 0 0 0 0 0 0 0 0 20 0 0 0 0 27 0 0 0 0 31 0 0 0 0 
		65 35 0 0 0 0 0 0 0 0 0 0 0 0 24 29 0 24 0 0 0 0 0 0 0 0 0 0 0 0 0 0 0 0 0 36 0 0 0 39 0 0 0 0 0 0 0 0 0 0 0 0 0 0 0 0 0 0 0 0 0 0 0 27 0 0 0 0 0 0 0 0 0 28 32 0 0 0 0 0 32 0 0 0 0 0 0 
		66 0 0 27 0 34 0 0 0 0 26 0 0 0 33 0 0 0 28 0 0 0 0 0 0 0 0 0 0 0 35 0 0 21 0 0 0 0 35 0 0 0 0 0 0 0 0 0 0 0 0 0 0 0 0 0 0 0 0 0 0 0 0 37 0 0 0 0 0 0 0 0 0 0 0 20 0 0 0 24 0 0 0 0 23 0 0 
		67 0 0 0 0 0 0 0 0 0 0 40 0 0 0 0 0 0 0 26 0 0 0 0 0 0 0 27 0 40 0 0 0 0 0 0 0 0 0 0 0 0 0 0 0 0 0 0 0 0 0 0 0 0 0 0 0 0 0 0 0 0 0 0 0 0 0 0 0 0 0 0 0 0 0 0 28 31 0 0 0 0 0 0 0 0 0 
		68 0 23 0 0 0 0 0 0 0 0 0 0 0 0 0 0 0 0 0 0 0 0 0 0 0 0 0 0 0 32 32 0 0 0 23 37 0 0 0 37 0 34 0 0 0 0 26 0 0 0 0 24 0 0 0 0 0 0 0 0 0 0 0 0 0 0 0 0 0 0 0 0 0 0 0 0 0 29 31 0 0 0 0 20 0 0 
		69 0 28 38 27 0 0 0 0 0 0 0 30 37 0 0 20 0 0 0 0 0 0 0 0 0 0 0 0 0 0 0 20 0 0 20 0 0 0 0 0 0 20 0 0 0 0 23 31 30 0 38 20 0 0 23 0 0 35 26 0 0 0 0 0 0 0 0 0 0 0 21 0 36 0 32 0 0 0 0 0 28 30 0 0 22 0 
		70 0 0 39 0 0 0 0 0 0 0 0 0 0 0 0 0 0 0 0 0 0 0 0 0 0 0 0 0 0 0 0 0 0 0 0 0 0 27 24 0 0 0 0 0 31 26 0 0 0 0 0 0 0 0 39 0 0 0 0 20 0 0 0 0 0 0 0 0 0 21 0 0 0 0 21 0 0 0 0 0 0 0 0 0 0 0 
		71 0 0 0 0 0 0 0 0 0 0 0 0 0 0 0 0 0 0 0 0 0 0 0 0 0 0 0 0 0 0 0 0 25 0 0 0 0 0 0 0 0 0 0 0 31 0 0 0 0 0 0 0 0 0 0 0 25 0 0 0 0 0 0 0 20 0 0 0 0 0 0 0 0 0 0 0 0 0 0 0 0 0 0 0 0 0 
		72 0 0 0 0 0 0 21 0 0 0 0 0 0 0 0 0 0 0 0 0 0 0 0 0 0 0 0 0 38 0 0 0 0 0 22 0 0 38 0 0 0 0 0 0 0 0 0 34 0 0 28 0 0 37 0 0 0 0 0 0 0 0 30 0 0 28 0 0 0 36 0 0 0 0 0 0 0 0 0 0 26 0 0 0 0 0 
		73 24 0 0 0 0 29 30 0 0 0 0 0 0 0 25 0 0 0 0 21 0 0 0 0 0 0 0 0 0 30 0 0 0 0 0 30 0 0 0 0 0 0 0 0 0 0 0 0 36 38 0 0 24 0 0 0 0 0 0 0 0 0 0 0 0 32 0 0 0 0 0 0 0 0 0 0 0 0 0 0 35 29 0 0 0 0 
		74 0 31 38 0 0 32 0 0 0 0 0 0 0 31 0 0 38 0 39 0 0 0 32 0 0 0 0 0 0 0 0 0 0 0 0 0 0 0 0 0 0 26 0 0 0 0 32 36 0 0 0 25 0 0 0 0 0 23 0 0 0 0 0 0 0 0 20 0 0 32 21 0 0 0 0 0 0 0 0 0 0 38 0 0 0 0 
		75 0 0 0 0 31 0 0 34 0 0 0 0 0 0 0 0 0 0 0 0 0 0 0 0 0 0 0 0 0 0 0 0 0 0 0 0 0 0 0 0 0 0 0 0 0 0 27 0 0 0 0 0 0 0 0 0 22 33 0 0 0 0 0 0 0 0 0 28 0 0 0 0 0 0 0 0 0 0 37 0 0 32 0 0 37 0 
		76 0 0 0 0 0 0 0 0 36 0 0 0 0 21 0 0 0 34 0 0 0 0 0 0 0 0 0 0 0 0 0 30 0 0 0 0 0 0 0 36 0 0 0 0 0 0 0 0 0 0 0 0 0 0 0 0 0 0 20 0 0 0 0 0 27 0 0 31 0 0 0 0 0 0 0 0 0 0 20 0 0 0 0 0 0 0 
		77 23 25 32 0 0 0 0 0 0 0 0 30 0 0 0 26 0 0 20 0 0 0 0 0 0 0 30 0 0 0 0 0 0 0 0 0 0 0 0 39 0 34 0 0 0 0 37 0 0 0 0 0 0 0 0 0 0 0 0 0 0 0 0 0 0 0 0 0 29 0 0 0 0 0 0 0 0 0 0 0 0 0 0 0 0 0 
		78 0 0 21 0 0 0 0 0 0 0 0 0 0 0 0 0 0 0 0 0 0 0 0 0 0 0 0 32 0 0 0 0 0 24 0 0 0 0 0 0 0 0 0 0 0 0 0 0 21 0 0 0 0 0 0 0 23 0 0 0 0 0 0 0 0 0 24 0 31 0 0 0 0 0 0 37 20 0 0 0 0 40 0 0 0 0 
		79 0 0 0 0 0 0 0 0 0 0 0 0 0 0 0 0 0 0 0 0 0 0 0 0 26 0 0 0 0 0 0 0 0 0 0 0 0 0 0 0 0 0 0 0 0 0 0 0 0 0 0 0 25 0 0 27 0 0 0 0 0 0 24 0 0 32 0 0 0 0 0 0 0 0 0 0 0 0 0 0 0 0 0 0 0 0 
		80 0 0 0 0 0 0 0 0 0 0 0 0 24 0 0 36 0 0 21 38 0 0 0 0 0 0 0 0 0 0 0 0 0 0 0 37 0 36 0 0 0 0 0 0 0 0 0 39 0 0 0 0 35 0 0 21 30 0 0 0 0 0 0 0 0 0 0 0 0 28 0 0 26 35 0 0 0 0 0 0 0 0 0 0 0 0 
		81 0 0 0 0 0 38 0 0 0 0 30 0 0 0 0 0 0 0 0 0 0 0 0 0 0 28 0 0 0 0 0 0 0 0 0 38 0 0 0 0 0 0 0 0 0 0 0 26 0 0 0 0 0 0 0 0 22 0 0 0 0 0 0 0 31 0 0 0 0 30 0 0 0 29 38 32 0 0 40 0 0 0 0 0 0 0 
		82 0 0 0 23 0 0 0 0 0 0 23 0 0 0 0 0 29 0 0 0 34 0 0 40 0 0 21 0 0 0 0 0 0 30 0 0 0 0 0 0 0 24 0 0 0 0 0 0 0 0 0 0 0 0 0 0 28 0 0 23 20 0 0 0 0 0 0 0 0 0 0 0 0 0 0 0 0 0 0 0 0 0 0 0 0 36 
		83 26 0 0 0 0 0 0 31 0 0 0 0 0 0 0 0 0 0 0 0 0 0 0 0 0 0 0 0 0 0 0 0 0 0 0 0 0 0 0 0 0 0 0 0 0 0 0 30 0 0 0 0 0 0 0 0 0 0 0 0 0 0 0 33 0 0 23 0 20 0 0 0 0 0 0 0 0 0 0 0 0 0 0 0 0 0 
		84 0 0 0 0 0 34 0 0 0 0 0 0 27 0 0 0 31 0 0 0 0 0 0 0 0 0 0 37 0 0 0 0 0 0 0 0 0 0 0 0 0 0 0 0 0 0 31 0 0 0 0 0 0 0 0 27 0 33 0 0 0 0 0 0 0 0 0 0 0 22 0 0 0 0 0 37 0 0 0 0 0 0 0 0 0 0 
		85 0 0 0 0 0 0 21 0 0 0 0 0 0 0 0 0 0 0 0 0 0 0 0 0 0 28 0 0 0 0 0 0 0 0 0 0 0 0 0 0 0 0 0 23 0 0 0 0 35 0 33 0 0 0 0 0 0 20 0 0 28 0 0 0 0 0 0 0 0 0 0 0 0 0 0 0 0 0 0 0 0 0 36 0 0 0 
;
